! B3LYP 6-31G* Opt TightSCF

* xyz 0 1
Be       0.000000    0.000000    0.000000
H        0.000000    0.000000    1.300000
H        0.000000    0.000000   -1.300000
*
