! B3LYP 6-31G* Opt TightSCF

* xyz 0 1
S       0.000000    0.000000    0.000000
H       0.950000    0.000000    0.300000
H      -0.950000    0.000000    0.300000
*
